benchmarks_vrp/CMT5/tsp_classic/CMT5_12.vrp
NAME: CMT5_12
TYPE: CVRP
COMMENT: 1291.29 - Cluster Nr.12
DIMENSION: 14
CAPACITY: 200
EDGE_WEIGHT_TYPE: EUC_2D
NODE_COORD_TYPE: TWOD_COORDS
NODE_COORD_SECTION: 
4 35 35
14 27 68
3 20 65
9 31 67
1 35 69
7 15 77
2 2 60
5 31 76
11 17 63
12 27 69
13 31 62
6 5 64
8 17 64
10 6 68
DEPOT_SECTION: 
4
-1
DEMAND_SECTION: 
9 3
2 5
14 7
11 19
8 14
4 0
1 23
5 25
13 23
3 12
7 9
12 10
6 11
10 30
EOF
