benchmarks_vrp/CMT5/tsp_classic/CMT5_12.tour
NAME: CMT5_12 solution
TYPE: TOUR
TOUR_SECTION:
4 2 6 10 7 8 11 3 14 12 5 1 9 13 -1
-1
EOF